DATASET = "thpack7";
INSTANCE = "090";

WIDTH = 233;
HEIGHT = 220;
LENGTH = 587;

NO_OF_SHAPES = 20;
size = [|
  91,52,33 |
  87,81,63 |
  113,79,45 |
  114,52,45 |
  110,90,66 |
  81,41,31 |
  108,67,37 |
  118,82,57 |
  96,60,30 |
  43,42,36 |
  93,78,77 |
  85,62,25 |
  93,83,30 |
  101,87,77 |
  112,72,56 |
  49,39,31 |
  100,67,38 |
  76,59,41 |
  114,64,59 |
  91,68,34 |
|];

verticality = [|
  0,1,1 |
  1,1,1 |
  0,1,1 |
  0,1,1 |
  1,1,1 |
  0,1,1 |
  0,1,1 |
  0,1,1 |
  0,0,1 |
  1,1,1 |
  1,1,1 |
  0,0,1 |
  0,0,1 |
  1,1,1 |
  0,1,1 |
  1,1,1 |
  0,1,1 |
  1,1,1 |
  1,1,1 |
  0,0,1 |
|];

box_count = [
  5,
  3,
  6,
  8,
  6,
  4,
  5,
  4,
  4,
  5,
  6,
  6,
  5,
  3,
  7,
  7,
  1,
  4,
  4,
  4,
];
